proyfinal/src/viki/013/andrea/andrea-localstore/experimentInOfficeAgust.take6/worker_11/32eee54e-386d-4a92-98a1-08de0a1f1d35.als.cnf.out
Reading from standard input... Use '--help' for help.
============================[ Problem Statistics ]=============================
|                                                                             |
|  Number of variables:         87638                                         |
|  Number of clauses:          161767                                         |
|  Parse time:                   0.03 s                                       |
|                                                                             |
============================[ Search Statistics ]==============================
| Conflicts |          ORIGINAL         |          LEARNT          | Progress |
|           |    Vars  Clauses Literals |    Limit  Clauses Lit/Cl |          |
===============================================================================
|       100 |   62369   105147   262698 |    38553      100     14 | 28.833 % |
|       250 |   62368   105103   262608 |    42409      249     89 | 28.835 % |
|       475 |   62368   105103   262608 |    46650      474     53 | 28.835 % |
|       812 |   62368   105103   262608 |    51315      811     72 | 28.835 % |
|      1318 |   62368   105103   262608 |    56446     1317     74 | 28.835 % |
|      2077 |   62368   105103   262608 |    62091     2076     86 | 28.835 % |
|      3216 |   62368   105103   262608 |    68300     3215     81 | 28.835 % |
|      4924 |   62368   105103   262608 |    75130     4923     78 | 28.835 % |
|      7486 |   62333   104961   262274 |    82643     7483     71 | 28.874 % |
|     11330 |   48836    65258   164110 |    90908     8585     71 | 44.275 % |
===============================================================================
restarts              : 60
conflicts             : 13440          (7700 /sec)
decisions             : 43426          (0.00 % random) (24878 /sec)
propagations          : 17991284       (10307037 /sec)
conflict literals     : 856146         (49.58 % deleted)
Memory used           : 28.65 MB
CPU time              : 1.74553 s

UNSATISFIABLE
